[VALIDATOR STDOUT]
Checking plan: /home/jfan5/Safety-gen/runs/benchmark/optic/blocksworld_20260201_170641/blocksworld/optic_results/bw_ops3_n11_seed11001.plan
Plan executed successfully - checking goal
Plan valid
Final value: 52 

Successful plans:
Value: 52
 /home/jfan5/Safety-gen/runs/benchmark/optic/blocksworld_20260201_170641/blocksworld/optic_results/bw_ops3_n11_seed11001.plan 52
